n_res = 4;
rc = [ 11, 13, 15, 14 ];
n_tasks = 30;
d = [ 10, 8, 6, 6, 3, 8, 1, 6, 2, 8, 2, 10, 3, 2, 7, 3, 6, 3, 1, 1, 3, 2, 2, 10, 8, 7, 1, 6, 10, 4 ];
rr = [| 0, 0, 0, 0, 9, 0, 0, 0, 0, 0, 0, 0, 5, 8, 3, 1, 0, 0, 0, 4, 0, 4, 0, 9, 5, 0, 0, 6, 0, 0
      | 10, 0, 5, 10, 0, 0, 1, 0, 0, 0, 0, 0, 0, 0, 8, 8, 5, 0, 0, 3, 8, 9, 4, 8, 0, 0, 0, 3, 0, 0
      | 2, 0, 6, 0, 2, 0, 0, 4, 7, 9, 4, 8, 0, 2, 9, 7, 10, 0, 0, 8, 6, 9, 7, 0, 0, 0, 0, 1, 3, 6
      | 10, 1, 9, 0, 1, 8, 4, 0, 5, 10, 0, 0, 7, 0, 0, 7, 5, 8, 2, 0, 0, 0, 6, 9, 0, 5, 10, 9, 8, 0 |];
suc = [ { 2 }, 
        { 1 }, 
        { 4 }, 
        { 3 }, 
        { 6 }, 
        { 5 }, 
        { 8 }, 
        { 7 }, 
        { 10 }, 
        { 9 }, 
        { 12 }, 
        { 11 }, 
        { 14 }, 
        { 13 }, 
        { 16 }, 
        { 15 }, 
        { 18 }, 
        { 17 }, 
        { 20 }, 
        { 19 }, 
        { 22 }, 
        { 21 }, 
        { 24 }, 
        { 23 }, 
        { 26 }, 
        { 25 }, 
        { 28 }, 
        { 27 }, 
        { 30 }, 
        { 29 }]; 
